100
128
17
49
62
13
52
4
64
22
58
12
29
38
1
14
20
6
31
22
45
17
7
36
31
2
17
29
32
44
38
44
16
44
49
15
38
21
35
14
19
20
17
36
2
29
39
22
54
42
31
35
42
25
43
39
46
40
56
64
64
32
50
52
24
26
51
32
44
64
24
51
10
38
39
36
47
44
28
44
31
48
24
34
24
48
28
52
46
36
62
29
43
1
54
48
45
55
38
32
35
30